p tw 44 94
5 12
10 14
10 44
1 20
1 2
1 19
1 16
1 13
6 19
6 18
6 11
6 13
9 20
9 12
9 16
9 11
2 5
2 8
2 11
2 3
2 20
12 16
12 19
8 43
8 9
4 15
4 20
4 13
4 18
4 10
15 17
15 18
42 44
42 43
24 27
24 37
24 31
24 34
24 28
25 44
29 37
29 33
29 34
21 22
21 37
21 32
21 39
21 23
33 42
33 38
33 40
28 36
38 39
38 40
13 20
13 41
13 18
41 42
41 44
41 43
17 19
32 40
22 27
22 37
22 40
22 25
22 24
27 37
27 29
27 39
7 9
7 14
7 17
3 11
35 40
35 39
16 20
31 36
31 43
31 32
31 38
31 33
11 42
11 12
11 16
43 44
26 37
26 28
23 32
23 27
23 26
23 30
36 41
36 38
